language ESSENCE' 1.0

letting C_FunctionND be
        [[0, 0, 0, 0, 0, 0, 0, 0, 0, 0, 0, 0, 0, 0, 0, 0, 0, 0, 0, 0, 0, 0; int(0..21)],
         [1, 0, 0, 0, 0, 0, 0, 0, 0, 0, 0, 0, 0, 0, 0, 0, 0, 0, 0, 0, 0, 0; int(0..21)],
         [1, 0, 0, 0, 0, 0, 0, 0, 0, 0, 0, 0, 0, 0, 0, 0, 0, 0, 0, 0, 0, 0; int(0..21)],
         [1, 0, 0, 0, 0, 0, 0, 0, 0, 0, 0, 0, 0, 0, 0, 0, 0, 0, 0, 0, 0, 0; int(0..21)],
         [1, 0, 0, 0, 0, 0, 0, 0, 0, 0, 0, 0, 0, 0, 0, 0, 0, 0, 0, 0, 0, 0; int(0..21)],
         [1, 0, 0, 0, 0, 0, 0, 0, 0, 0, 0, 0, 0, 0, 0, 0, 0, 0, 0, 0, 0, 0; int(0..21)],
         [1, 0, 0, 0, 0, 0, 0, 0, 0, 0, 0, 0, 0, 0, 0, 0, 0, 0, 0, 0, 0, 0; int(0..21)],
         [1, 0, 0, 0, 0, 0, 0, 0, 0, 0, 0, 0, 0, 0, 0, 0, 0, 0, 0, 0, 0, 0; int(0..21)],
         [1, 0, 0, 0, 0, 0, 0, 0, 0, 0, 0, 0, 0, 0, 0, 0, 0, 0, 0, 0, 0, 0; int(0..21)],
         [0, 1, 1, 0, 0, 0, 0, 0, 1, 0, 0, 0, 0, 0, 0, 0, 0, 0, 0, 0, 0, 0; int(0..21)],
         [0, 1, 0, 1, 0, 0, 0, 0, 0, 0, 0, 0, 0, 0, 0, 0, 0, 0, 0, 0, 0, 0; int(0..21)],
         [0, 1, 0, 0, 1, 1, 0, 0, 0, 0, 0, 0, 0, 0, 0, 0, 0, 0, 0, 0, 0, 0; int(0..21)],
         [0, 1, 0, 0, 0, 0, 1, 1, 0, 0, 0, 0, 0, 0, 0, 0, 0, 0, 0, 0, 0, 0; int(0..21)],
         [0, 0, 1, 1, 0, 1, 0, 0, 0, 0, 0, 0, 0, 0, 0, 0, 0, 0, 0, 0, 0, 0; int(0..21)],
         [0, 0, 1, 0, 1, 0, 0, 1, 0, 0, 0, 0, 0, 0, 0, 0, 0, 0, 0, 0, 0, 0; int(0..21)],
         [0, 0, 1, 0, 0, 0, 1, 0, 0, 0, 0, 0, 0, 0, 0, 0, 0, 0, 0, 0, 0, 0; int(0..21)],
         [0, 0, 0, 1, 1, 0, 1, 0, 0, 0, 0, 0, 0, 0, 0, 0, 0, 0, 0, 0, 0, 0; int(0..21)],
         [0, 0, 0, 1, 0, 0, 0, 1, 1, 0, 0, 0, 0, 0, 0, 0, 0, 0, 0, 0, 0, 0; int(0..21)],
         [0, 0, 0, 0, 1, 0, 0, 0, 1, 0, 0, 0, 0, 0, 0, 0, 0, 0, 0, 0, 0, 0; int(0..21)],
         [0, 0, 0, 0, 0, 1, 1, 0, 1, 0, 0, 0, 0, 0, 0, 0, 0, 0, 0, 0, 0, 0; int(0..21)],
         [0, 0, 0, 0, 0, 1, 0, 1, 0, 0, 0, 0, 0, 0, 0, 0, 0, 0, 0, 0, 0, 0; int(0..21)],
         [0, 0, 0, 0, 0, 0, 0, 0, 0, 1, 1, 1, 1, 1, 1, 1, 1, 1, 1, 1, 1, 0; int(0..21)];
             int(0..21)]
$ Visualisation for C_FunctionND
$ 0 0 0 0 0 0 0 0 0 0 0 0 0 0 0 0 0 0 0 0 0 0
$ 1 0 0 0 0 0 0 0 0 0 0 0 0 0 0 0 0 0 0 0 0 0
$ 1 0 0 0 0 0 0 0 0 0 0 0 0 0 0 0 0 0 0 0 0 0
$ 1 0 0 0 0 0 0 0 0 0 0 0 0 0 0 0 0 0 0 0 0 0
$ 1 0 0 0 0 0 0 0 0 0 0 0 0 0 0 0 0 0 0 0 0 0
$ 1 0 0 0 0 0 0 0 0 0 0 0 0 0 0 0 0 0 0 0 0 0
$ 1 0 0 0 0 0 0 0 0 0 0 0 0 0 0 0 0 0 0 0 0 0
$ 1 0 0 0 0 0 0 0 0 0 0 0 0 0 0 0 0 0 0 0 0 0
$ 1 0 0 0 0 0 0 0 0 0 0 0 0 0 0 0 0 0 0 0 0 0
$ 0 1 1 0 0 0 0 0 1 0 0 0 0 0 0 0 0 0 0 0 0 0
$ 0 1 0 1 0 0 0 0 0 0 0 0 0 0 0 0 0 0 0 0 0 0
$ 0 1 0 0 1 1 0 0 0 0 0 0 0 0 0 0 0 0 0 0 0 0
$ 0 1 0 0 0 0 1 1 0 0 0 0 0 0 0 0 0 0 0 0 0 0
$ 0 0 1 1 0 1 0 0 0 0 0 0 0 0 0 0 0 0 0 0 0 0
$ 0 0 1 0 1 0 0 1 0 0 0 0 0 0 0 0 0 0 0 0 0 0
$ 0 0 1 0 0 0 1 0 0 0 0 0 0 0 0 0 0 0 0 0 0 0
$ 0 0 0 1 1 0 1 0 0 0 0 0 0 0 0 0 0 0 0 0 0 0
$ 0 0 0 1 0 0 0 1 1 0 0 0 0 0 0 0 0 0 0 0 0 0
$ 0 0 0 0 1 0 0 0 1 0 0 0 0 0 0 0 0 0 0 0 0 0
$ 0 0 0 0 0 1 1 0 1 0 0 0 0 0 0 0 0 0 0 0 0 0
$ 0 0 0 0 0 1 0 1 0 0 0 0 0 0 0 0 0 0 0 0 0 0
$ 0 0 0 0 0 0 0 0 0 1 1 1 1 1 1 1 1 1 1 1 1 0

letting J_FunctionND be
        [[0, 1, 2, 3, 4, 5, 6, 7, 8, 9, 10, 11, 12, 13, 14, 15, 16, 17, 18, 19, 20, 21; int(0..21)],
         [1, 1, 9, 10, 11, 11, 12, 12, 9, 9, 10, 11, 12, 21, 21, 21, 21, 21, 21, 21, 21, 21; int(0..21)],
         [2, 9, 2, 13, 14, 13, 15, 14, 9, 9, 21, 21, 21, 13, 14, 15, 21, 21, 21, 21, 21, 21; int(0..21)],
         [3, 10, 13, 3, 16, 13, 16, 17, 17, 21, 10, 21, 21, 13, 21, 21, 16, 17, 21, 21, 21, 21; int(0..21)],
         [4, 11, 14, 16, 4, 11, 16, 14, 18, 21, 21, 11, 21, 21, 14, 21, 16, 21, 18, 21, 21, 21; int(0..21)],
         [5, 11, 13, 13, 11, 5, 19, 20, 19, 21, 21, 11, 21, 13, 21, 21, 21, 21, 21, 19, 20, 21; int(0..21)],
         [6, 12, 15, 16, 16, 19, 6, 12, 19, 21, 21, 21, 12, 21, 21, 15, 16, 21, 21, 19, 21, 21; int(0..21)],
         [7, 12, 14, 17, 14, 20, 12, 7, 17, 21, 21, 21, 12, 21, 14, 21, 21, 17, 21, 21, 20, 21; int(0..21)],
         [8, 9, 9, 17, 18, 19, 19, 17, 8, 9, 21, 21, 21, 21, 21, 21, 21, 17, 18, 19, 21, 21; int(0..21)],
         [9, 9, 9, 21, 21, 21, 21, 21, 9, 9, 21, 21, 21, 21, 21, 21, 21, 21, 21, 21, 21, 21; int(0..21)],
         [10, 10, 21, 10, 21, 21, 21, 21, 21, 21, 10, 21, 21, 21, 21, 21, 21, 21, 21, 21, 21, 21; int(0..21)],
         [11, 11, 21, 21, 11, 11, 21, 21, 21, 21, 21, 11, 21, 21, 21, 21, 21, 21, 21, 21, 21, 21; int(0..21)],
         [12, 12, 21, 21, 21, 21, 12, 12, 21, 21, 21, 21, 12, 21, 21, 21, 21, 21, 21, 21, 21, 21; int(0..21)],
         [13, 21, 13, 13, 21, 13, 21, 21, 21, 21, 21, 21, 21, 13, 21, 21, 21, 21, 21, 21, 21, 21; int(0..21)],
         [14, 21, 14, 21, 14, 21, 21, 14, 21, 21, 21, 21, 21, 21, 14, 21, 21, 21, 21, 21, 21, 21; int(0..21)],
         [15, 21, 15, 21, 21, 21, 15, 21, 21, 21, 21, 21, 21, 21, 21, 15, 21, 21, 21, 21, 21, 21; int(0..21)],
         [16, 21, 21, 16, 16, 21, 16, 21, 21, 21, 21, 21, 21, 21, 21, 21, 16, 21, 21, 21, 21, 21; int(0..21)],
         [17, 21, 21, 17, 21, 21, 21, 17, 17, 21, 21, 21, 21, 21, 21, 21, 21, 17, 21, 21, 21, 21; int(0..21)],
         [18, 21, 21, 21, 18, 21, 21, 21, 18, 21, 21, 21, 21, 21, 21, 21, 21, 21, 18, 21, 21, 21; int(0..21)],
         [19, 21, 21, 21, 21, 19, 19, 21, 19, 21, 21, 21, 21, 21, 21, 21, 21, 21, 21, 19, 21, 21; int(0..21)],
         [20, 21, 21, 21, 21, 20, 21, 20, 21, 21, 21, 21, 21, 21, 21, 21, 21, 21, 21, 21, 20, 21; int(0..21)],
         [21, 21, 21, 21, 21, 21, 21, 21, 21, 21, 21, 21, 21, 21, 21, 21, 21, 21, 21, 21, 21, 21; int(0..21)];
             int(0..21)]
$ Visualisation for J_FunctionND
$  0  1  2  3  4  5  6  7  8  9 10 11 12 13 14 15 16 17 18 19 20 21
$  1  1  9 10 11 11 12 12  9  9 10 11 12 21 21 21 21 21 21 21 21 21
$  2  9  2 13 14 13 15 14  9  9 21 21 21 13 14 15 21 21 21 21 21 21
$  3 10 13  3 16 13 16 17 17 21 10 21 21 13 21 21 16 17 21 21 21 21
$  4 11 14 16  4 11 16 14 18 21 21 11 21 21 14 21 16 21 18 21 21 21
$  5 11 13 13 11  5 19 20 19 21 21 11 21 13 21 21 21 21 21 19 20 21
$  6 12 15 16 16 19  6 12 19 21 21 21 12 21 21 15 16 21 21 19 21 21
$  7 12 14 17 14 20 12  7 17 21 21 21 12 21 14 21 21 17 21 21 20 21
$  8  9  9 17 18 19 19 17  8  9 21 21 21 21 21 21 21 17 18 19 21 21
$  9  9  9 21 21 21 21 21  9  9 21 21 21 21 21 21 21 21 21 21 21 21
$ 10 10 21 10 21 21 21 21 21 21 10 21 21 21 21 21 21 21 21 21 21 21
$ 11 11 21 21 11 11 21 21 21 21 21 11 21 21 21 21 21 21 21 21 21 21
$ 12 12 21 21 21 21 12 12 21 21 21 21 12 21 21 21 21 21 21 21 21 21
$ 13 21 13 13 21 13 21 21 21 21 21 21 21 13 21 21 21 21 21 21 21 21
$ 14 21 14 21 14 21 21 14 21 21 21 21 21 21 14 21 21 21 21 21 21 21
$ 15 21 15 21 21 21 15 21 21 21 21 21 21 21 21 15 21 21 21 21 21 21
$ 16 21 21 16 16 21 16 21 21 21 21 21 21 21 21 21 16 21 21 21 21 21
$ 17 21 21 17 21 21 21 17 17 21 21 21 21 21 21 21 21 17 21 21 21 21
$ 18 21 21 21 18 21 21 21 18 21 21 21 21 21 21 21 21 21 18 21 21 21
$ 19 21 21 21 21 19 19 21 19 21 21 21 21 21 21 21 21 21 21 19 21 21
$ 20 21 21 21 21 20 21 20 21 21 21 21 21 21 21 21 21 21 21 21 20 21
$ 21 21 21 21 21 21 21 21 21 21 21 21 21 21 21 21 21 21 21 21 21 21

letting M_FunctionND be
        [[0, 0, 0, 0, 0, 0, 0, 0, 0, 0, 0, 0, 0, 0, 0, 0, 0, 0, 0, 0, 0, 0; int(0..21)],
         [0, 1, 0, 0, 0, 0, 0, 0, 0, 1, 1, 1, 1, 0, 0, 0, 0, 0, 0, 0, 0, 1; int(0..21)],
         [0, 0, 2, 0, 0, 0, 0, 0, 0, 2, 0, 0, 0, 2, 2, 2, 0, 0, 0, 0, 0, 2; int(0..21)],
         [0, 0, 0, 3, 0, 0, 0, 0, 0, 0, 3, 0, 0, 3, 0, 0, 3, 3, 0, 0, 0, 3; int(0..21)],
         [0, 0, 0, 0, 4, 0, 0, 0, 0, 0, 0, 4, 0, 0, 4, 0, 4, 0, 4, 0, 0, 4; int(0..21)],
         [0, 0, 0, 0, 0, 5, 0, 0, 0, 0, 0, 5, 0, 5, 0, 0, 0, 0, 0, 5, 5, 5; int(0..21)],
         [0, 0, 0, 0, 0, 0, 6, 0, 0, 0, 0, 0, 6, 0, 0, 6, 6, 0, 0, 6, 0, 6; int(0..21)],
         [0, 0, 0, 0, 0, 0, 0, 7, 0, 0, 0, 0, 7, 0, 7, 0, 0, 7, 0, 0, 7, 7; int(0..21)],
         [0, 0, 0, 0, 0, 0, 0, 0, 8, 8, 0, 0, 0, 0, 0, 0, 0, 8, 8, 8, 0, 8; int(0..21)],
         [0, 1, 2, 0, 0, 0, 0, 0, 8, 9, 1, 1, 1, 2, 2, 2, 0, 8, 8, 8, 0, 9; int(0..21)],
         [0, 1, 0, 3, 0, 0, 0, 0, 0, 1, 10, 1, 1, 3, 0, 0, 3, 3, 0, 0, 0, 10; int(0..21)],
         [0, 1, 0, 0, 4, 5, 0, 0, 0, 1, 1, 11, 1, 5, 4, 0, 4, 0, 4, 5, 5, 11; int(0..21)],
         [0, 1, 0, 0, 0, 0, 6, 7, 0, 1, 1, 1, 12, 0, 7, 6, 6, 7, 0, 6, 7, 12; int(0..21)],
         [0, 0, 2, 3, 0, 5, 0, 0, 0, 2, 3, 5, 0, 13, 2, 2, 3, 3, 0, 5, 5, 13; int(0..21)],
         [0, 0, 2, 0, 4, 0, 0, 7, 0, 2, 0, 4, 7, 2, 14, 2, 4, 7, 4, 0, 7, 14; int(0..21)],
         [0, 0, 2, 0, 0, 0, 6, 0, 0, 2, 0, 0, 6, 2, 2, 15, 6, 0, 0, 6, 0, 15; int(0..21)],
         [0, 0, 0, 3, 4, 0, 6, 0, 0, 0, 3, 4, 6, 3, 4, 6, 16, 3, 4, 6, 0, 16; int(0..21)],
         [0, 0, 0, 3, 0, 0, 0, 7, 8, 8, 3, 0, 7, 3, 7, 0, 3, 17, 8, 8, 7, 17; int(0..21)],
         [0, 0, 0, 0, 4, 0, 0, 0, 8, 8, 0, 4, 0, 0, 4, 0, 4, 8, 18, 8, 0, 18; int(0..21)],
         [0, 0, 0, 0, 0, 5, 6, 0, 8, 8, 0, 5, 6, 5, 0, 6, 6, 8, 8, 19, 5, 19; int(0..21)],
         [0, 0, 0, 0, 0, 5, 0, 7, 0, 0, 0, 5, 7, 5, 7, 0, 0, 7, 0, 5, 20, 20; int(0..21)],
         [0, 1, 2, 3, 4, 5, 6, 7, 8, 9, 10, 11, 12, 13, 14, 15, 16, 17, 18, 19, 20, 21; int(0..21)];
             int(0..21)]
$ Visualisation for M_FunctionND
$  0  0  0  0  0  0  0  0  0  0  0  0  0  0  0  0  0  0  0  0  0  0
$  0  1  0  0  0  0  0  0  0  1  1  1  1  0  0  0  0  0  0  0  0  1
$  0  0  2  0  0  0  0  0  0  2  0  0  0  2  2  2  0  0  0  0  0  2
$  0  0  0  3  0  0  0  0  0  0  3  0  0  3  0  0  3  3  0  0  0  3
$  0  0  0  0  4  0  0  0  0  0  0  4  0  0  4  0  4  0  4  0  0  4
$  0  0  0  0  0  5  0  0  0  0  0  5  0  5  0  0  0  0  0  5  5  5
$  0  0  0  0  0  0  6  0  0  0  0  0  6  0  0  6  6  0  0  6  0  6
$  0  0  0  0  0  0  0  7  0  0  0  0  7  0  7  0  0  7  0  0  7  7
$  0  0  0  0  0  0  0  0  8  8  0  0  0  0  0  0  0  8  8  8  0  8
$  0  1  2  0  0  0  0  0  8  9  1  1  1  2  2  2  0  8  8  8  0  9
$  0  1  0  3  0  0  0  0  0  1 10  1  1  3  0  0  3  3  0  0  0 10
$  0  1  0  0  4  5  0  0  0  1  1 11  1  5  4  0  4  0  4  5  5 11
$  0  1  0  0  0  0  6  7  0  1  1  1 12  0  7  6  6  7  0  6  7 12
$  0  0  2  3  0  5  0  0  0  2  3  5  0 13  2  2  3  3  0  5  5 13
$  0  0  2  0  4  0  0  7  0  2  0  4  7  2 14  2  4  7  4  0  7 14
$  0  0  2  0  0  0  6  0  0  2  0  0  6  2  2 15  6  0  0  6  0 15
$  0  0  0  3  4  0  6  0  0  0  3  4  6  3  4  6 16  3  4  6  0 16
$  0  0  0  3  0  0  0  7  8  8  3  0  7  3  7  0  3 17  8  8  7 17
$  0  0  0  0  4  0  0  0  8  8  0  4  0  0  4  0  4  8 18  8  0 18
$  0  0  0  0  0  5  6  0  8  8  0  5  6  5  0  6  6  8  8 19  5 19
$  0  0  0  0  0  5  0  7  0  0  0  5  7  5  7  0  0  7  0  5 20 20
$  0  1  2  3  4  5  6  7  8  9 10 11 12 13 14 15 16 17 18 19 20 21

letting R_Function1D be [0, 1, 1, 1, 1, 1, 1, 1, 1, 2, 2, 2, 2, 2, 2, 2, 2, 2, 2, 2, 2, 3; int(0..21)]
